#=======================================================
# FHI-aims file: full_relax/full_relax_RP_4_RxRyMz_RxRy-Mz.in
# Created using the Atomic Simulation Environment (ASE)
# Fri Mar 14 11:26:20 2025
#=======================================================
lattice_vector 10.0275550841411469 -0.0366177860264615 -0.0000000000002655 
lattice_vector -0.0366177860264596 10.0275550841408645 -0.0000000000006303 
lattice_vector -0.0000000000012200 -0.0000000000029168 45.7704955750888232 
atom 0.0609460335329222 -0.1271168904432820 0.2303255207996821 Ba
atom 5.1408944323610779 -0.0792549269649544 0.2303255209878320 Ba
atom 0.1088079968818938 4.9528315086388019 0.2303255210738594 Ba
atom 5.0564146830884837 4.8683517591964378 0.2303255213105391 Ba
atom -0.2855569127526019 0.2219566966517448 4.9927689833857576 Ba
atom 4.7918208452870195 0.2672480193906686 4.9927689832298414 Ba
atom -0.2402655903141220 5.2993344549653978 4.9927689832060658 Ba
atom 4.7099117365877108 5.2174253464435552 4.9927689830517261 Ba
atom 2.4692528409609902 2.5293336130720068 2.3921021400020477 Zr
atom 7.4799125787435283 2.5079069188097081 2.3921021388570942 Zr
atom 2.4478261469377882 7.5399933488361750 2.3921021393525836 Zr
atom 7.4647214874605536 7.5248022569702382 2.3921021400615263 Zr
atom 2.4568873830906561 2.5369016449126511 7.4429604299955079 Zr
atom 7.4723445472229493 2.5202723753595806 7.4429604325844698 Zr
atom 2.4402581137761543 7.5523588066824603 7.4429604297653196 Zr
atom 7.4523560308077066 7.5323702905104470 7.4429604319982703 Zr
atom 2.6377532015832239 2.7913051425008555 -0.1116890919280817 S
atom 7.2179410480990764 2.3394065538387894 -0.1116890927433615 S
atom 2.1858546129352736 7.3714929896769741 -0.1116890927532635 S
atom 7.6332218510655006 7.7867737925268292 -0.1116890930642491 S
atom 2.2032950079843605 2.2247594378278777 4.9473648864933173 S
atom 7.7844867533698530 2.7738647475296738 4.9473648868340003 S
atom 2.7524003177739780 7.8059511834836544 4.9473648893706743 S
atom 7.1987636572640659 7.2202280872120292 4.9473648864531885 S
atom 2.7248007256112343 0.0315333924824859 2.2179433626941787 S
atom 7.1871901830404887 0.0169057413840611 2.7676162936632318 S
atom 2.1551037480223614 5.0489921724925111 2.7676162930881154 S
atom 7.7202693750637721 5.0270020382091758 2.2179433630212539 S
atom 2.8510807571557839 0.0255484274058820 7.7631398093081438 S
atom 7.1126278980594595 0.0116810294994315 7.1386242375888695 S
atom 2.0805414635323669 5.0437674631897442 7.1386242384872469 S
atom 7.8465494067817154 5.0210170747760463 7.7631398089921433 S
atom -0.0498422800801302 2.2889768157486667 2.2179433629697525 S
atom 4.9602540136342439 2.8220560074022116 2.7676162932589143 S
atom -0.0718324195964890 7.8541424438309333 2.7676162934805713 S
atom 4.9456263661914219 7.2844454657151587 2.2179433627725946 S
atom -0.0438573190902868 2.1626967843248637 7.7631398091969821 S
atom 4.9654787266011855 2.8966182922546095 7.1386242381782319 S
atom -0.0666077033735066 7.9287047283544023 7.1386242378909674 S
atom 4.9516113249895239 7.1581654341573531 7.7631398090635946 S
atom 0.2328890137619092 -0.1451242048960874 9.9501077341871760 Ba
atom 5.1589017477141210 -0.2511979082781753 9.9501077343213087 Ba
atom 0.1268153105447052 4.7808885277331390 9.9501077339239110 Ba
atom 5.2283576647530392 4.8503444448258897 9.9501077340528532 Ba
atom -0.2855569132496149 0.2219566968283528 14.9074464838090357 Ba
atom 4.7918208457464591 0.2672480195959673 14.9074464839392586 Ba
atom -0.2402655903931164 5.2993344547486405 14.9074464839355905 Ba
atom 4.7099117367516596 5.2174253461291640 14.9074464840260923 Ba
atom 2.4568873839038829 2.5369016446008845 12.4572550387978627 Zr
atom 7.4723445466476086 2.5202723740420048 12.4572550378105351 Zr
atom 2.4402581139003208 7.5523588071799947 12.4572550391950330 Zr
atom 7.4523560307349825 7.5323702921356048 12.4572550365087658 Zr
atom 2.4692528416036041 2.5293336123652188 17.5081133276909142 Zr
atom 7.4799125783392508 2.5079069174762596 17.5081133271574423 Zr
atom 2.4478261469849603 7.5399933496284932 17.5081133286270152 Zr
atom 7.4647214877116159 7.5248022582435103 17.5081133267793128 Zr
atom 2.7294621574611377 2.8667118147223873 9.9501077325855913 S
atom 7.1425343758735780 2.2476975982101126 9.9501077311201893 S
atom 2.1104479408233727 7.2797840335700199 9.9501077299046905 S
atom 7.7249308071957108 7.8621804648873628 9.9501077318179298 S
atom 2.2032950080884124 2.2247594380729994 14.9528505798843394 S
atom 7.7844867536972053 2.7738647478062863 14.9528505804036307 S
atom 2.7524003179007948 7.8059511833832902 14.9528505796461637 S
atom 7.1987636574008551 7.2202280870981550 14.9528505823364437 S
atom 2.8510807571422103 0.0255484304601953 12.1370756583052195 S
atom 7.1126278981835256 0.0116810284069791 12.7615912299788334 S
atom 2.0805414634487622 5.0437674600527282 12.7615912296086513 S
atom 7.8465494071654822 5.0210170755475616 12.1370756581928010 S
atom 2.7248007256078521 0.0315333913748343 17.6822721045213989 S
atom 7.1871901832141960 0.0169057398377108 17.1325991738637953 S
atom 2.1551037480547799 5.0489921736110484 17.1325991742902275 S
atom 7.7202693751330598 5.0270020398745370 17.6822721042856195 S
atom -0.0438573170630052 2.1626967843411755 12.1370756581817432 S
atom 4.9654787241417031 2.8966182925241157 12.7615912295274310 S
atom -0.0666077053743801 7.9287047284743215 12.7615912300610894 S
atom 4.9516113265801041 7.1581654338483354 12.1370756583855037 S
atom -0.0498422788328054 2.2889768158711847 17.6822721045046123 S
atom 4.9602540121684537 2.8220560076439138 17.1325991743199673 S
atom -0.0718324196101783 7.8541424434249496 17.1325991738583134 S
atom 4.9456263651336982 7.2844454655687203 17.6822721043830953 S
atom 0.0609460336538372 -0.1271168903606453 19.6698899479276008 Ba
atom 5.1408944322542878 -0.0792549268649003 19.6698899473871407 Ba
atom 0.1088079970956467 4.9528315086656463 19.6698899476396285 Ba
atom 5.0564146828946557 4.8683517590371936 19.6698899461264460 Ba
atom 2.6377532015855421 2.7913051427442648 20.0119045590134697 S
atom 7.2179410480801733 2.3394065540433808 20.0119045607599197 S
atom 2.1858546131315539 7.3714929894200827 20.0119045587067390 S
atom 7.6332218510633831 7.7867737922007718 20.0119045605834174 S
atom 2.3706174329554268 2.5586803575595791 23.1155733033567152 Ba
atom 7.4505658338040259 2.6065423219591271 23.1155733030573032 Ba
atom 2.4184793971498806 7.6386287579270364 23.1155733047862313 Ba
atom 7.3660860835692716 7.5541490075373723 23.1155733046428686 Ba
atom 2.7196910216774750 2.2121774108846131 27.8780167737437985 Ba
atom 7.7970687782419859 2.2574687345960536 27.8780167735809279 Ba
atom 2.7649823445987445 7.2895551713065432 27.8780167730669781 Ba
atom 7.7151596692821283 7.2076460617153879 27.8780167729377517 Ba
atom 5.0270679342481683 4.9669871684159981 25.2773499179645320 Zr
atom 10.0377276765682559 4.9455604748650437 25.2773499150955949 Zr
atom 5.0056412398890791 9.9776469001253822 25.2773499193723978 Zr
atom 10.0225365858244881 9.9624558074434653 25.2773499142738665 Zr
atom 5.0346359666817353 4.9546217072421879 30.3282082386883225 Zr
atom 10.0500931347105933 4.9379924401021738 30.3282082380442795 Zr
atom 5.0180066980077065 9.9700788713812223 30.3282082411651963 Zr
atom 10.0301046172851098 9.9500903535893510 30.3282082394973855 Zr
atom 5.2890394668681751 5.1354875252473109 22.7735587075043746 S
atom 9.8692273139125088 4.6835889371892518 22.7735587041652643 S
atom 4.8371408792845125 9.7156753731931591 22.7735587027643263 S
atom 10.2845081162283645 10.1309561756594331 22.7735587052430439 S
atom 4.7224937621789147 4.7010293316017862 27.8326126623255448 S
atom 10.3036855081058238 5.2501346423782165 27.8326126690370330 S
atom 5.2715990739987273 10.2822210796115545 27.8326126609705327 S
atom 9.7179624112964778 9.6964979817085091 27.8326126711375004 S
atom 4.7867111411004757 2.4478920500968879 25.1031911532206635 S
atom 10.3518767677257344 2.4259019064723817 25.6528640829106038 S
atom 5.3197903321898155 7.4579883322758107 25.6528640818178246 S
atom 9.7821797900865182 7.4433606904212821 25.1031911530379865 S
atom 4.6604311087126176 2.4538770105439318 30.6483875936094883 S
atom 10.4264390523416015 2.4311266165087395 30.0238720221316129 S
atom 5.3943526184123058 7.4632130465345234 30.0238720216692236 S
atom 9.6558997593288627 7.4493456530124966 30.6483875925448856 S
atom 2.5292677206024470 5.2225350485766722 25.1031911533517942 S
atom 7.5467264946418533 4.6528380721376461 25.6528640823650989 S
atom 2.5146400643526521 9.6849245084797015 25.6528640823622673 S
atom 7.5247363639114893 10.2180037001126074 25.1031911528838449 S
atom 2.5232827487973548 5.3488150810673218 30.6483875928935738 S
atom 7.5415017901074810 4.5782757873074100 30.0238720217822248 S
atom 2.5094153414819180 9.6103622229696786 30.0238720220570308 S
atom 7.5187514114801006 10.3442837313533893 30.6483875934099004 S
atom 2.3526101195710551 2.7306233384311889 32.8353555234002172 Ba
atom 7.2786228512323561 2.6245496355040294 32.8353555234380536 Ba
atom 2.2465364172753617 7.6566360732635035 32.8353555234721313 Ba
atom 7.3480787672751759 7.7260919898585332 32.8353555235859673 Ba
atom 2.7196910192992485 2.2121774102314253 37.7926942665410266 Ba
atom 7.7970687807736301 2.2574687336916761 37.7926942668601669 Ba
atom 2.7649823427384859 7.2895551720684262 37.7926942669848458 Ba
atom 7.7151596714347983 7.2076460622100784 37.7926942673912336 Ba
atom 5.0346359687048503 4.9546217080767532 35.3425028070493781 Zr
atom 10.0500931334622887 4.9379924377570275 35.3425028125411416 Zr
atom 5.0180066980724130 9.9700788706456596 35.3425028069928189 Zr
atom 10.0301046167195160 9.9500903551069744 35.3425028136908352 Zr
atom 5.0270679382395294 4.9669871679300632 40.3933611208873629 Zr
atom 10.0377276738472521 4.9455604715204462 40.3933611175517129 Zr
atom 5.0056412414064857 9.9776469010566018 40.3933611159661368 Zr
atom 10.0225365834953237 9.9624558107262526 40.3933611123705489 Zr
atom 5.3644461386364606 5.2271964802908144 32.8353555192922144 S
atom 9.7775183588132126 4.6081822661718954 32.8353555110622395 S
atom 4.7454319238277165 9.6402687006471552 32.8353555152930880 S
atom 10.3599147880615821 10.2226651311559102 32.8353555029072908 S
atom 4.7224937627287842 4.7010293318533467 37.8380983785936849 S
atom 10.3036855087337500 5.2501346427084492 37.8380983829176785 S
atom 5.2715990727753805 10.2822210790026674 37.8380983841064022 S
atom 9.7179624104558258 9.6964979812313654 37.8380983917071774 S
atom 4.6604311090653310 2.4538770137733894 35.0223234485224566 S
atom 10.4264390538499097 2.4311266238904703 35.6468390208198613 S
atom 5.3943526176224861 7.4632130432338446 35.6468390209951451 S
atom 9.6558997575096406 7.4493456473087969 35.0223234466317166 S
atom 4.7867111410041341 2.4478920437745959 40.5675198905340721 S
atom 10.3518767679280188 2.4259019038577985 40.0178469620100117 S
atom 5.3197903316190418 7.4579883380704448 40.0178469623835724 S
atom 9.7821797903465590 7.4433606925769729 40.5675198906329655 S
atom 2.5232827603065591 5.3488150811833917 35.0223234480399839 S
atom 7.5415017782942293 4.5782757876279430 35.6468390205423660 S
atom 2.5094153568688853 9.6103622213315916 35.6468390214161488 S
atom 7.5187513968477182 10.3442837325731229 35.0223234469894180 S
atom 2.5292677180198098 5.2225350494429614 40.5675198905868655 S
atom 7.5467264956402280 4.6528380726032994 40.0178469620382629 S
atom 2.5146400665068898 9.6849245082908340 40.0178469623054482 S
atom 7.5247363620919110 10.2180036992424661 40.5675198905209342 S
atom 2.3706174334501098 2.5586803583821962 42.5551377383859588 Ba
atom 7.4505658335387288 2.6065423227688242 42.5551377382190807 Ba
atom 2.4184793977320638 7.6386287568257263 42.5551377376931441 Ba
atom 7.3660860832392521 7.5541490066714303 42.5551377371717052 Ba
atom 5.2890394669228220 5.1354875256840895 42.8971523388679614 S
atom 9.8692273142120897 4.6835889372700645 42.8971523398177865 S
atom 4.8371408787846297 9.7156753732190033 42.8971523406610942 S
atom 10.2845081167027974 10.1309561755967064 42.8971523407242898 S
