# geometry.in for FHI-aims 
# | generated by phonopy.FHIaims.write_aims() 
lattice_vector -4.9621042600000003 4.9621042600000003 35.2495096399999994 
lattice_vector 4.9621042600000003 -4.9621042600000003 35.2495096399999994 
lattice_vector 2.4810521300000001 2.4810521300000001 -17.6247548199999997 
atom -0.0000000000000001 0.0000000000000001 15.2474387086190131 Ba 
atom -2.4810521300000010 2.4810521300000010 32.8721935286190146 Ba 
atom 2.4810521300000001 -2.4810521300000001 32.8721935286190146 Ba 
atom -0.0000000000000002 0.0000000000000002 50.4969483486190143 Ba 
atom -0.0000000000000000 0.0000000000000000 20.0020709313809881 Ba 
atom -2.4810521300000006 2.4810521300000006 37.6268257513809914 Ba 
atom 2.4810521300000006 -2.4810521300000006 37.6268257513809914 Ba 
atom -0.0000000000000002 0.0000000000000002 55.2515805713809911 Ba 
atom -0.0000000000000000 0.0000000000000000 10.5930324741017330 Ba 
atom -2.4810521300000001 2.4810521300000001 28.2177872941017327 Ba 
atom 2.4810521300000001 -2.4810521300000001 28.2177872941017327 Ba 
atom 0.0000000000000001 -0.0000000000000001 45.8425421141017324 Ba 
atom -0.0000000000000003 0.0000000000000003 24.6564771658982700 Ba 
atom -2.4810521299999997 2.4810521299999997 42.2812319858982733 Ba 
atom 2.4810521300000001 -2.4810521300000001 42.2812319858982733 Ba 
atom 0.0000000000000010 -0.0000000000000010 59.9059868058982730 Ba 
atom 0.0013806156836168 2.4824327456836173 -0.0098075379514063 S 
atom -2.4810521300000001 4.9621042600000003 17.6247548199999997 S 
atom 2.4810521300000001 0.0000000000000000 17.6247548199999997 S 
atom 0.0000000000000000 2.4810521300000001 35.2495096399999994 S 
atom 0.0000000000000000 2.4810521300000001 17.6247548199999997 S 
atom 2.4810521300000001 0.0000000000000000 0.0000000000000000 S 
atom 2.4810521300000001 0.0000000000000000 35.2495096399999994 S 
atom 4.9621042600000003 -2.4810521300000001 17.6247548199999997 S 
atom -0.0000000000000002 0.0000000000000002 32.7582699334232998 S 
atom -2.4810521300000001 2.4810521300000001 50.3830247534232925 S 
atom 2.4810521300000001 -2.4810521300000001 50.3830247534232996 S 
atom 0.0000000000000002 -0.0000000000000002 68.0077795734232922 S 
atom 0.0000000000000000 -0.0000000000000000 2.4912397065766978 S 
atom -2.4810521300000001 2.4810521300000001 20.1159945265766993 S 
atom 2.4810521300000001 -2.4810521300000001 20.1159945265766993 S 
atom 0.0000000000000002 -0.0000000000000002 37.7407493465766990 S 
atom 0.0000000000000001 -0.0000000000000001 27.7148638578277442 S 
atom -2.4810521300000001 2.4810521300000001 45.3396186778277439 S 
atom 2.4810521300000006 -2.4810521300000006 45.3396186778277439 S 
atom 0.0000000000000009 -0.0000000000000009 62.9643734978277507 S 
atom 0.0000000000000000 -0.0000000000000000 7.5346457821722552 S 
atom -2.4810521299999997 2.4810521299999997 25.1594006021722514 S 
atom 2.4810521300000001 -2.4810521300000001 25.1594006021722514 S 
atom 0.0000000000000001 -0.0000000000000001 42.7841554221722475 S 
atom -0.0000000000000004 2.4810521300000001 12.7179264944555879 S 
atom -2.4810521300000001 4.9621042600000003 30.3426813144555858 S 
atom 2.4810521300000001 0.0000000000000002 30.3426813144555858 S 
atom -0.0000000000000008 2.4810521300000006 47.9674361344555891 S 
atom 2.4810521300000001 0.0000000000000000 12.7179264944555861 S 
atom -0.0000000000000004 2.4810521300000001 30.3426813144555858 S 
atom 4.9621042600000003 -2.4810521300000001 30.3426813144555858 S 
atom 2.4810521300000001 0.0000000000000002 47.9674361344555820 S 
atom 2.4810521300000001 0.0000000000000000 4.9068283255444136 S 
atom 0.0000000000000005 2.4810521300000001 22.5315831455444062 S 
atom 4.9621042600000003 -2.4810521300000001 22.5315831455444133 S 
atom 2.4810521300000006 -0.0000000000000008 40.1563379655444095 S 
atom 0.0000000000000000 2.4810521300000001 4.9068283255444136 S 
atom -2.4810521300000001 4.9621042600000003 22.5315831455444133 S 
atom 2.4810521300000001 0.0000000000000000 22.5315831455444133 S 
atom 0.0000000000000005 2.4810521300000001 40.1563379655444095 S 
atom 0.0000000000000000 0.0000000000000000 0.0000000000000000 Zr 
atom -2.4810521300000001 2.4810521300000001 17.6247548199999997 Zr 
atom 2.4810521300000001 -2.4810521300000001 17.6247548199999997 Zr 
atom 0.0000000000000000 0.0000000000000000 35.2495096399999994 Zr 
atom 0.0000000000000002 -0.0000000000000002 30.1957870904181007 Zr 
atom -2.4810521300000010 2.4810521300000010 47.8205419104181075 Zr 
atom 2.4810521300000006 -2.4810521300000006 47.8205419104181004 Zr 
atom -0.0000000000000000 0.0000000000000000 65.4452967304181072 Zr 
atom -0.0000000000000000 0.0000000000000000 5.0537225495818960 Zr 
atom -2.4810521300000001 2.4810521300000001 22.6784773695818949 Zr 
atom 2.4810521300000001 -2.4810521300000001 22.6784773695818949 Zr 
atom 0.0000000000000000 -0.0000000000000000 40.3032321895818910 Zr 
