lattice_vector   -2.4772084300000001     2.4772084300000001    12.6664911199999999
lattice_vector    2.4772084300000001    -2.4772084300000001    12.6664911199999999
lattice_vector    2.4772084300000001     2.4772084300000001   -12.6664911199999999
atom_frac     0.0000000000000000     0.0000000000000000     0.0000000000000000 Ba
atom_frac     0.1803900933106381     0.1803900933106377     0.9997166934820146 Ba
atom_frac     0.8196099066893617     0.8196099066893622     0.0002833065179853 Ba
atom_frac     0.5000000000000000     0.5000000000000000     0.0000000000000000 S
atom_frac     0.3005032548306739     0.3005032548306726     0.9991781071064521 S
atom_frac     0.6994967451693261     0.6994967451693274     0.0008218928935480 S
atom_frac     0.9038759890391636     0.4031365338375232     0.4989654492204656 S
atom_frac     0.4031365338375259     0.9038759890391631     0.4989654492204678 S
atom_frac     0.0961240109608364     0.5968634661624768     0.5010345507795345 S
atom_frac     0.5968634661624741     0.0961240109608368     0.5010345507795323 S
atom_frac     0.3996167244576481     0.3996167244576485     0.0002898131078464 Zr
atom_frac     0.6003832755423519     0.6003832755423515     0.9997101868921536 Zr
