lattice_vector   -2.4772084300000001     2.4772084300000001    12.6664911199999999
lattice_vector    2.4772084300000001    -2.4772084300000001    12.6664911199999999
lattice_vector    2.4772084300000001     2.4772084300000001   -12.6664911199999999
atom_frac     0.0000000000000000     0.0000000000000000     0.0000000000000000 Ba
atom_frac     0.1802853066209797     0.1802853066209813     0.9995074012759274 Ba
atom_frac     0.8197146933790203     0.8197146933790187     0.0004925987240726 Ba
atom_frac     0.5000000000000000     0.5000000000000000     0.0000000000000000 S
atom_frac     0.3003279408871934     0.3003279408871972     0.9988275174234180 S
atom_frac     0.6996720591128066     0.6996720591128028     0.0011724825765819 S
atom_frac     0.9036449019621706     0.4042212866076546     0.4998190082019706 S
atom_frac     0.4042212866076558     0.9036449019621731     0.4998190082019742 S
atom_frac     0.0963550980378293     0.5957787133923453     0.5001809917980294 S
atom_frac     0.5957787133923441     0.0963550980378269     0.5001809917980258 S
atom_frac     0.3988148085522946     0.3988148085522988     0.9986859912088916 Zr
atom_frac     0.6011851914477053     0.6011851914477012     0.0013140087911084 Zr
