lattice_vector   -2.4772084300000001     2.4772084300000001    12.6664911199999999
lattice_vector    2.4772084300000001    -2.4772084300000001    12.6664911199999999
lattice_vector    2.4772084300000001     2.4772084300000001   -12.6664911199999999
atom_frac     0.0000000000000000     0.0000000000000000     0.0000000000000000 Ba
atom_frac     0.1805316730509585     0.1805314869490415     0.0000000000000000 Ba
atom_frac     0.8194683269490415     0.8194685130509585     0.0000000000000000 Ba
atom_frac     0.5000000000000000     0.5000000000000000     0.0000000000000000 S
atom_frac     0.3009142806058487     0.3009141193941514     0.0000000000000000 S
atom_frac     0.6990857193941513     0.6990858806058486     0.0000000000000000 S
atom_frac     0.9042211380612442     0.4042200824261924     0.4999992783407990 S
atom_frac     0.4038271175738076     0.9038260619387558     0.5000007216592010 S
atom_frac     0.0957788619387558     0.5957799175738077     0.5000007216592011 S
atom_frac     0.5961728824261924     0.0961739380612441     0.4999992783407990 S
atom_frac     0.3994716525193002     0.3994719674806996     0.0000000000000000 Zr
atom_frac     0.6005283474806997     0.6005280325193003     0.0000000000000000 Zr
