lattice_vector   -2.4772084300000001     2.4772084300000001    12.6664911199999999
lattice_vector    2.4772084300000001    -2.4772084300000001    12.6664911199999999
lattice_vector    2.4772084300000001     2.4772084300000001   -12.6664911199999999
atom_frac     0.0000000000000000     0.0000000000000000     0.0000000000000000 Ba
atom_frac     0.1807778053231796     0.1802853546768189     0.9999999999999984 Ba
atom_frac     0.8192221946768204     0.8197146453231811     0.0000000000000016 Ba
atom_frac     0.5000000000000000     0.5000000000000000     0.0000000000000000 S
atom_frac     0.3015007131377382     0.3003276868622581     0.9999999999999963 S
atom_frac     0.6984992868622618     0.6996723131377418     0.0000000000000037 S
atom_frac     0.9044022794492662     0.4042212764859739     0.5005762546700288 S
atom_frac     0.4038259235140273     0.9036449205507313     0.4994237453299701 S
atom_frac     0.0955977205507337     0.5957787235140261     0.4994237453299713 S
atom_frac     0.5961740764859726     0.0963550794492686     0.5005762546700300 S
atom_frac     0.4001286549316272     0.3988149650683685     0.9999999999999959 Zr
atom_frac     0.5998713450683728     0.6011850349316314     0.0000000000000042 Zr
