lattice_vector   -2.4772084300000001     2.4772084300000001    12.6664911199999999
lattice_vector    2.4772084300000001    -2.4772084300000001    12.6664911199999999
lattice_vector    2.4772084300000001     2.4772084300000001   -12.6664911199999999
atom_frac     0.0000000000000000     0.0000000000000000     0.0000000000000000 Ba
atom_frac     0.1807721127269765     0.1807721127269765     0.0000006957043907 Ba
atom_frac     0.8192278872730234     0.8192278872730234     0.9999993042956092 Ba
atom_frac     0.5000000000000000     0.5000000000000000     0.0000000000000000 S
atom_frac     0.3009062466887187     0.3009062466887187     0.0000022140293323 S
atom_frac     0.6990937533112813     0.6990937533112813     0.9999977859706677 S
atom_frac     0.9039237105421394     0.4039251384749429     0.5000021652065537 S
atom_frac     0.4039251384749429     0.9039237105421394     0.5000021652065538 S
atom_frac     0.0960762894578605     0.5960748615250571     0.4999978347934463 S
atom_frac     0.5960748615250570     0.0960762894578606     0.4999978347934462 S
atom_frac     0.3994775963063502     0.3994775963063502     0.9999995479954297 Zr
atom_frac     0.6005224036936498     0.6005224036936498     0.0000004520045703 Zr
