lattice_vector   -2.4772084300000001     2.4772084300000001    12.6664911199999999
lattice_vector    2.4772084300000001    -2.4772084300000001    12.6664911199999999
lattice_vector    2.4772084300000001     2.4772084300000001   -12.6664911199999999
atom_frac     0.0000000000000000     0.0000000000000000     0.0000000000000000 Ba
atom_frac     0.1805041521839362     0.1805041521839362     0.9999999351681403 Ba
atom_frac     0.8194958478160638     0.8194958478160638     0.0000000648318597 Ba
atom_frac     0.5000000000000000     0.5000000000000000     0.0000000000000000 S
atom_frac     0.3008150703126889     0.3008150703126889     0.0000003538717334 S
atom_frac     0.6991849296873111     0.6991849296873111     0.9999996461282665 S
atom_frac     0.9038745724121953     0.4038745052044102     0.4999998095444341 S
atom_frac     0.4038745052044102     0.9038745724121953     0.4999998095444341 S
atom_frac     0.0961254275878047     0.5961254947955898     0.5000001904555660 S
atom_frac     0.5961254947955898     0.0961254275878047     0.5000001904555660 S
atom_frac     0.3993203916224527     0.3993203916224527     0.9999999285828574 Zr
atom_frac     0.6006796083775473     0.6006796083775473     0.0000000714171426 Zr
