lattice_vector   -2.4772084300000001     2.4772084300000001    12.6664911199999999
lattice_vector    2.4772084300000001    -2.4772084300000001    12.6664911199999999
lattice_vector    2.4772084300000001     2.4772084300000001   -12.6664911199999999
atom_frac     0.0000000000000000     0.0000000000000000     0.0000000000000000 Ba
atom_frac     0.1804976161780183     0.1804976161780183     0.9999999855489017 Ba
atom_frac     0.8195023838219816     0.8195023838219816     0.0000000144510983 Ba
atom_frac     0.5000000000000000     0.5000000000000000     0.0000000000000000 S
atom_frac     0.3010053179867114     0.3010053179867114     0.9999999146030460 S
atom_frac     0.6989946820132885     0.6989946820132885     0.0000000853969540 S
atom_frac     0.9038542762419810     0.4038542940011446     0.5000000293075044 S
atom_frac     0.4038542940011446     0.9038542762419810     0.5000000293075044 S
atom_frac     0.0961457237580189     0.5961457059988553     0.4999999706924956 S
atom_frac     0.5961457059988553     0.0961457237580189     0.4999999706924956 S
atom_frac     0.3995771885659153     0.3995771885659153     0.0000000208543690 Zr
atom_frac     0.6004228114340847     0.6004228114340847     0.9999999791456310 Zr
