lattice_vector   -2.4772084300000001     2.4772084300000001    12.6664911199999999
lattice_vector    2.4772084300000001    -2.4772084300000001    12.6664911199999999
lattice_vector    2.4772084300000001     2.4772084300000001   -12.6664911199999999
atom_frac     0.0000000000000000     0.0000000000000000     0.0000000000000000 Ba
atom_frac     0.1805590078160638     0.1805590078160638     0.0000000648318597 Ba
atom_frac     0.8194409921839363     0.8194409921839363     0.9999999351681403 Ba
atom_frac     0.5000000000000000     0.5000000000000000     0.0000000000000000 S
atom_frac     0.3010133296873111     0.3010133296873111     0.9999996461282665 S
atom_frac     0.6989866703126889     0.6989866703126889     0.0000003538717334 S
atom_frac     0.9041726275878048     0.4041726947955898     0.5000001904555659 S
atom_frac     0.4041726947955898     0.9041726275878048     0.5000001904555659 S
atom_frac     0.0958273724121952     0.5958273052044102     0.4999998095444341 S
atom_frac     0.5958273052044102     0.0958273724121952     0.4999998095444341 S
atom_frac     0.3996232283775472     0.3996232283775472     0.0000000714171426 Zr
atom_frac     0.6003767716224527     0.6003767716224527     0.9999999285828574 Zr
