lattice_vector   -2.4810521300000001     2.4810521300000001    17.6247548199999997
lattice_vector    2.4810521300000001    -2.4810521300000001    17.6247548199999997
lattice_vector    2.4810521300000001     2.4810521300000001   -17.6247548199999997
atom_frac     0.4325547449502268     0.4325547449502268     0.9999946455509174 Ba
atom_frac     0.5674452550497733     0.5674452550497733     0.0000053544490825 Ba
atom_frac     0.3005140650256138     0.3005140650256138     0.9999969672194731 Ba
atom_frac     0.6994859349743862     0.6994859349743862     0.0000030327805269 Ba
atom_frac     0.5000000000000000     0.0000000000000000     0.5000000000000000 S
atom_frac     0.0000000000000000     0.5000000000000000     0.5000000000000000 S
atom_frac     0.9292157154147155     0.9292157154147155     0.9997818470626508 S
atom_frac     0.0707842845852845     0.0707842845852844     0.0002181529373492 S
atom_frac     0.7861631051837327     0.7861631051837327     0.9998144066258847 S
atom_frac     0.2138368948162674     0.2138368948162674     0.0001855933741153 S
atom_frac     0.8605890924987759     0.3617538082107234     0.5007475906118822 S
atom_frac     0.3617538082107234     0.8605890924987759     0.5007475906118822 S
atom_frac     0.1394109075012240     0.6382461917892767     0.4992524093881178 S
atom_frac     0.6382461917892766     0.1394109075012240     0.4992524093881178 S
atom_frac     0.0000000000000000     0.0000000000000000     0.0000000000000000 Zr
atom_frac     0.8564396695541017     0.8564396695541017     0.9996233200023995 Zr
atom_frac     0.1435603304458983     0.1435603304458983     0.0003766799976004 Zr
