lattice_vector   -2.4772084300000001     2.4772084300000001    12.6664911199999999
lattice_vector    2.4772084300000001    -2.4772084300000001    12.6664911199999999
lattice_vector    2.4772084300000001     2.4772084300000001   -12.6664911199999999
atom_frac     0.0000000000000000     0.0000000000000000     0.0000000000000000 Ba
atom_frac     0.1807311009853078     0.1807311009853074     0.0003990278113379 Ba
atom_frac     0.8192688990146921     0.8192688990146926     0.9996009721886621 Ba
atom_frac     0.5000000000000000     0.5000000000000000     0.0000000000000000 S
atom_frac     0.3000138426174610     0.3000138426174627     0.9981993436989024 S
atom_frac     0.6999861573825389     0.6999861573825372     0.0018006563010976 S
atom_frac     0.9041208340897988     0.4043750942267685     0.5004487736722459 S
atom_frac     0.4043750942267693     0.9041208340897986     0.5004487736722465 S
atom_frac     0.0958791659102012     0.5956249057732315     0.4995512263277542 S
atom_frac     0.5956249057732308     0.0958791659102014     0.4995512263277537 S
atom_frac     0.3996590440742956     0.3996590440742952     0.0003745185528087 Zr
atom_frac     0.6003409559257045     0.6003409559257048     0.9996254814471913 Zr
