lattice_vector   -2.4772084300000001     2.4772084300000001    12.6664911199999999
lattice_vector    2.4772084300000001    -2.4772084300000001    12.6664911199999999
lattice_vector    2.4772084300000001     2.4772084300000001   -12.6664911199999999
atom_frac     0.0000000000000000     0.0000000000000000     0.0000000000000000 Ba
atom_frac     0.1803899950218552     0.1806731649781443     0.9999999999999996 Ba
atom_frac     0.8196100049781447     0.8193268350218557     0.0000000000000004 Ba
atom_frac     0.5000000000000000     0.5000000000000000     0.0000000000000000 S
atom_frac     0.3005030399644956     0.3013253600355032     0.9999999999999988 S
atom_frac     0.6994969600355044     0.6986746399644967     0.0000000000000012 S
atom_frac     0.9038763297920377     0.4049106975598105     0.5007394524418783 S
atom_frac     0.4031365024401868     0.9041708702079618     0.4992605475581187 S
atom_frac     0.0961236702079623     0.5950893024401895     0.4992605475581217 S
atom_frac     0.5968634975598130     0.0958291297920381     0.5007394524418814 S
atom_frac     0.3996168360822154     0.3993267839177849     0.0000000000000004 Zr
atom_frac     0.6003831639177846     0.6006732160822150     0.9999999999999996 Zr
