lattice_vector   -2.4610398899999999     2.4610398899999999     7.7807133700000000
lattice_vector    2.4610398899999999    -2.4610398899999999     7.7807133700000000
lattice_vector    2.4610398899999999     2.4610398899999999    -7.7807133700000000
atom_frac     0.6412024979839718     0.6412024979839719     0.0001337375144833 Ba
atom_frac     0.3587975020160283     0.3587975020160282     0.9998662624855167 Ba
atom_frac     0.5000000000000000     0.0000000000000000     0.5000000000000000 S
atom_frac     0.0000000000000000     0.5000000000000000     0.5000000000000000 S
atom_frac     0.8346883186980359     0.8346883186980341     0.9979727452465300 S
atom_frac     0.1653116813019641     0.1653116813019660     0.0020272547534699 S
atom_frac     0.0000000000000000     0.0000000000000000     0.0000000000000000 Zr
