lattice_vector   -2.4772084300000001     2.4772084300000001    12.6664911199999999
lattice_vector    2.4772084300000001    -2.4772084300000001    12.6664911199999999
lattice_vector    2.4772084300000001     2.4772084300000001   -12.6664911199999999
atom_frac     0.9999999999999999     0.0000000000000000     0.9999999999999999 Ba
atom_frac     0.1799041091926820     0.1799041091926439     0.9987450451687775 Ba
atom_frac     0.8200958908073182     0.8200958908073562     0.0012549548312227 Ba
atom_frac     0.5000000000000000     0.4999999999999999     1.0000000000000000 S
atom_frac     0.3008132671469628     0.3008132671469566     0.9997981565815760 S
atom_frac     0.6991867328530372     0.6991867328530432     0.0002018434184239 S
atom_frac     0.9043607157660748     0.4046203244960764     0.5009338454450822 S
atom_frac     0.4046203244960402     0.9043607157660952     0.5009338454450665 S
atom_frac     0.0956392842339252     0.5953796755039236     0.4990661545549179 S
atom_frac     0.5953796755039599     0.0956392842339047     0.4990661545549337 S
atom_frac     0.3998523798865742     0.3998523798865973     0.0007611584709893 Zr
atom_frac     0.6001476201134257     0.6001476201134026     0.9992388415290108 Zr
