lattice_vector   -2.4810521300000001     2.4810521300000001    17.6247548199999997
lattice_vector    2.4810521300000001    -2.4810521300000001    17.6247548199999997
lattice_vector    2.4810521300000001     2.4810521300000001   -17.6247548199999997
atom_frac     0.4325033914938354     0.4325033914938349     0.9998918361843083 Ba
atom_frac     0.5674966085061647     0.5674966085061651     0.0001081638156916 Ba
atom_frac     0.2999316693494085     0.2999316693494070     0.9988317710976863 Ba
atom_frac     0.7000683306505916     0.7000683306505930     0.0011682289023138 Ba
atom_frac     0.5000000000000000     1.0000000000000000     0.4999999999999999 S
atom_frac     0.0000000000000000     0.5000000000000000     0.5000000000000000 S
atom_frac     0.9292829732899517     0.9292829732899516     0.9999148800357721 S
atom_frac     0.0707170267100484     0.0707170267100484     0.0000851199642280 S
atom_frac     0.7862834485625758     0.7862834485625759     0.0000705082878691 S
atom_frac     0.2137165514374242     0.2137165514374240     0.9999294917121310 S
atom_frac     0.8601913543773987     0.3604304172565126     0.4990272366312396 S
atom_frac     0.3604304172565135     0.8601913543773974     0.4990272366312392 S
atom_frac     0.1398086456226013     0.6395695827434875     0.5009727633687604 S
atom_frac     0.6395695827434866     0.1398086456226027     0.5009727633687610 S
atom_frac     0.0000000000000000     1.0000000000000000     1.0000000000000000 Zr
atom_frac     0.8562219701193660     0.8562219701193649     0.9991840251821774 Zr
atom_frac     0.1437780298806341     0.1437780298806351     0.0008159748178226 Zr
