# geometry.in for FHI-aims 
# | generated by phonopy.FHIaims.write_aims() 
lattice_vector -4.9220797799999998 4.9220797799999998 15.5614267399999999 
lattice_vector 4.9220797799999998 -4.9220797799999998 15.5614267399999999 
lattice_vector 2.4610398899999999 2.4610398899999999 -7.7807133700000000 
atom 0.0000000000000004 -0.0000000000000004 9.9769842029631430 Ba 
atom -2.4610398899999999 2.4610398899999999 17.7576975729631457 Ba 
atom 2.4610398899999999 -2.4610398899999999 17.7576975729631421 Ba 
atom 0.0000000000000008 -0.0000000000000008 25.5384109429631430 Ba 
atom -0.0000000000000000 0.0000000000000000 5.5844425370368604 Ba 
atom -2.4610398899999995 2.4610398899999995 13.3651559070368595 Ba 
atom 2.4610398899999999 -2.4610398899999999 13.3651559070368613 Ba 
atom 0.0000000000000002 -0.0000000000000002 21.1458692770368586 Ba 
atom -0.0028873010625396 2.4639271910625395 0.0091283615807289 S 
atom -2.4610398899999990 4.9220797799999998 7.7807133699999991 S 
atom 2.4610398899999999 0.0000000000000000 7.7807133699999991 S 
atom 0.0000000000000005 2.4610398899999990 15.5614267399999981 S 
atom 2.4610398899999999 0.0000000000000000 0.0000000000000000 S 
atom 0.0000000000000000 2.4610398899999999 7.7807133699999991 S 
atom 4.9220797799999998 -2.4610398899999995 7.7807133700000009 S 
atom 2.4610398899999999 0.0000000000000000 15.5614267399999981 S 
atom 0.0000000000000003 -0.0000000000000003 13.0047177836854946 S 
atom -2.4610398899999999 2.4610398899999999 20.7854311536854972 S 
atom 2.4610398899999999 -2.4610398899999999 20.7854311536854972 S 
atom -0.0000000000000007 0.0000000000000007 28.5661445236854981 S 
atom -0.0000000000000001 0.0000000000000001 2.5567089563145098 S 
atom -2.4610398899999999 2.4610398899999999 10.3374223263145097 S 
atom 2.4610398899999999 -2.4610398899999999 10.3374223263145097 S 
atom 0.0000000000000002 -0.0000000000000002 18.1181356963145141 S 
atom 0.0000000000000000 0.0000000000000000 0.0000000000000000 Zr 
atom -2.4610398899999999 2.4610398899999999 7.7807133700000000 Zr 
atom 2.4610398899999999 -2.4610398899999999 7.7807133700000000 Zr 
atom 0.0000000000000000 0.0000000000000000 15.5614267399999999 Zr 
