lattice_vector   -2.4772084300000001     2.4772084300000001    12.6664911199999999
lattice_vector    2.4772084300000001    -2.4772084300000001    12.6664911199999999
lattice_vector    2.4772084300000001     2.4772084300000001   -12.6664911199999999
atom_frac     0.0000000000000000     0.0000000000000000     0.0000000000000000 Ba
atom_frac     0.1807312771178848     0.1803318828821149     0.9999999999999997 Ba
atom_frac     0.8192687228821153     0.8196681171178851     0.0000000000000004 Ba
atom_frac     0.5000000000000000     0.5000000000000000     0.0000000000000000 S
atom_frac     0.3000140182583516     0.3018143817416502     0.0000000000000017 S
atom_frac     0.6999859817416484     0.6981856182583498     0.9999999999999982 S
atom_frac     0.9041209167920141     0.4036718209190749     0.4997456353516834 S
atom_frac     0.4043753790809244     0.9039262832079857     0.5002543646483157 S
atom_frac     0.0958790832079859     0.5963281790809251     0.5002543646483167 S
atom_frac     0.5956246209190756     0.0960737167920142     0.4997456353516843 S
atom_frac     0.3996591205778383     0.3992844994221612     0.9999999999999997 Zr
atom_frac     0.6003408794221616     0.6007155005778387     0.0000000000000004 Zr
